p cnf 13 23
13 -10 -9 0
-13 9 -1 0
-13 8 7 0
13 -5 4 0
-13 -5 -1 0
12 -11 8 0
-12 9 2 0
-12 8 -7 0
12 7 -6 0
12 -7 -1 0
-12 3 -1 0
12 -3 1 0
11 -8 3 0
11 -7 1 0
11 -6 -4 0
-10 -9 -4 0
-10 8 4 0
-10 8 1 0
-10 7 -5 0
-10 6 -2 0
-8 7 -5 0
-7 3 -1 0
-5 -4 3 0
